(set-logic LIA)

(declare-const z Int)
(declare-const z! Int)
(declare-const y Int)
(declare-const y! Int)
(declare-const tmp Int)
(declare-const tmp! Int)
(declare-const c Int)
(declare-const c! Int)

(declare-const z_41 Int)
(declare-const z_33 Int)
(declare-const z_31 Int)
(declare-const y_0 Int)
(declare-const c_39 Int)
(declare-const c_34 Int)
(declare-const c_28 Int)

(define-fun inv-f((c Int)(tmp Int)(y Int)(z Int)) Bool
